data/minlplib/nl/prob09.col
x2
x3
objvar
